(set-info :smt-lib-version 2.6)
(set-logic UF)
(set-info :source |Benchmarks from the paper: "Extending Sledgehammer with SMT Solvers" by Jasmin Blanchette, Sascha Bohme, and Lawrence C. Paulson, CADE 2011.  Translated to SMT2 by Andrew Reynolds and Morgan Deters.|)
(set-info :category "industrial")
(set-info :status sat)
(declare-sort S1 0)
(declare-sort S2 0)
(declare-sort S3 0)
(declare-sort S4 0)
(declare-sort S5 0)
(declare-sort S6 0)
(declare-sort S7 0)
(declare-sort S8 0)
(declare-sort S9 0)
(declare-sort S10 0)
(declare-sort S11 0)
(declare-sort S12 0)
(declare-sort S13 0)
(declare-sort S14 0)
(declare-sort S15 0)
(declare-sort S16 0)
(declare-sort S17 0)
(declare-sort S18 0)
(declare-sort S19 0)
(declare-sort S20 0)
(declare-fun f1 () S1)
(declare-fun f2 () S1)
(declare-fun f3 (S4 S3) S3)
(declare-fun f4 (S5 S3) S4)
(declare-fun f5 (S6 S2) S5)
(declare-fun f6 () S6)
(declare-fun f7 () S5)
(declare-fun f8 (S7 S2) S4)
(declare-fun f9 () S7)
(declare-fun f10 () S2)
(declare-fun f11 () S7)
(declare-fun f12 (S8 S6) S4)
(declare-fun f13 (S9 S3) S8)
(declare-fun f14 () S9)
(declare-fun f15 () S3)
(declare-fun f16 () S2)
(declare-fun f17 (S10 S11) S11)
(declare-fun f18 (S12 S3) S10)
(declare-fun f19 () S12)
(declare-fun f20 () S11)
(declare-fun f21 (S13 S14) S14)
(declare-fun f22 () S13)
(declare-fun f23 () S14)
(declare-fun f24 (S15 S13) S13)
(declare-fun f25 (S16 S11) S15)
(declare-fun f26 () S16)
(declare-fun f27 () S16)
(declare-fun f28 () S12)
(declare-fun f29 (S17 S13) S15)
(declare-fun f30 () S17)
(declare-fun f31 (S18 S11) S10)
(declare-fun f32 () S18)
(declare-fun f33 (S19 S2) S2)
(declare-fun f34 (S20 S2) S19)
(declare-fun f35 () S20)
(assert (not (= f1 f2)))
(assert (forall ((?v0 S2) (?v1 S3) (?v2 S3)) (= (f3 (f4 (f5 f6 ?v0) ?v1) ?v2) (f3 (f4 f7 (f3 (f8 f9 f10) ?v2)) (f3 (f8 f11 ?v0) ?v2)))))
(assert (not (= (f3 (f12 (f13 f14 f15) f6) f15) f15)))
(assert (= (f3 (f8 f11 f16) f15) f15))
(assert (= (f17 (f18 f19 f15) f20) f20))
(assert (= (f21 f22 f23) f23))
(assert (= (f24 (f25 f26 f20) f22) f22))
(assert (forall ((?v0 S2)) (= (f3 (f8 f9 ?v0) f15) f15)))
(assert (forall ((?v0 S11)) (= (f24 (f25 f27 ?v0) f22) f22)))
(assert (forall ((?v0 S3)) (= (f17 (f18 f28 ?v0) f20) f20)))
(assert (forall ((?v0 S3)) (= (f3 (f4 f7 ?v0) f15) ?v0)))
(assert (forall ((?v0 S13)) (= (f24 (f29 f30 ?v0) f22) ?v0)))
(assert (forall ((?v0 S11)) (= (f17 (f31 f32 ?v0) f20) ?v0)))
(assert (forall ((?v0 S2)) (= (f33 (f34 f35 ?v0) f16) ?v0)))
(check-sat)
(exit)
